0000000000001000
0000000000001000
0000000000001000
0000000000001000
0000000000001000
0000000000000000
0000000000000000
0000011100000100
0000100001111100
0001000000000000
0001000000000000
0000000000000000
0000100000000000
0000011111111000
0000000000000000
0000000000000000
